
(set-logic ALL) 

(declare-datatype MyList ((Nil) (Cons (head Real) (tail MyList)) )) 
(declare-fun l0 () MyList) 
(declare-fun l1 () MyList) 
(declare-fun l2 () MyList) 
(declare-fun l3 () MyList) 
(declare-fun i0 () Real) 
(declare-fun i1 () Real) 
(assert (is-Nil l1) )
(assert (= l2 Nil) )
(assert (or (= l0 Nil) (is-Cons Nil) (is-Cons l0)) )
(assert (not (= l3 Nil)) )
(assert (not (= l2 l1)) )
(assert (is-Nil l1) )
(assert (= l3 Nil) )
(assert (not (= l1 l0)) )
(check-sat)
